(set-logic ALL)
(set-option :produce-models true)
(declare-sort BoundSet 0)
(declare-sort UnboundSet 0)
(set-option :finite-model-find true)
(declare-fun IsClear (BoundSet) Bool)
(declare-fun IsDay (BoundSet) Bool)
(declare-fun IsOutside (BoundSet) Bool)
(assert (not (=> (exists ((b BoundSet)) (IsClear b)) (exists ((e BoundSet)) (exists ((d BoundSet)) (and (IsDay d) (IsOutside e)))))))
(check-sat)
(get-model)